========================================================== 
File name: C:\DEGR\assets\definitions\MSRCPSP_Gen\100_20_64_5_D.def
Creation date: Wed May 03 10:38:47 CEST 2023
Website: http://imopse.ii.pwr.edu.pl/ 
Reference: 
Myszkowski P. B., Skowronski M. E., Olech L., Oslizlo K., 
Hybrid Ant Colony Optimization in solving Multi-Skill Resource-Constrained Project Scheduling Problem, 
Soft Computing, DOI: DOI 10.1007/s00500-014-1455-x 
========================================================== 
General characteristics: 
Tasks: 100
Resources: 20
Precedence relations: 63
Number of skill types: 5
========================================================== 
ResourceID 	 Salary 	 Skills 
1	 	 	51.3	 	 Q4: 1 	 
2	 	 	36.5	 	 Q0: 2 	 
3	 	 	90.9	 	 Q3: 2 	  Q0: 2 	  Q4: 3 	  Q1: 2 	 
4	 	 	33.9	 	 Q4: 0 	 
5	 	 	62.4	 	 Q4: 1 	  Q1: 3 	  Q3: 0 	 
6	 	 	45.5	 	 Q1: 0 	  Q3: 3 	 
7	 	 	81.1	 	 Q3: 2 	  Q4: 2 	 
8	 	 	49.9	 	 Q0: 2 	  Q3: 2 	  Q2: 3 	  Q1: 0 	 
9	 	 	24.4	 	 Q4: 3 	  Q1: 2 	 
10	 	 	78.9	 	 Q0: 1 	 
11	 	 	30.7	 	 Q0: 3 	  Q4: 1 	  Q1: 2 	 
12	 	 	61.4	 	 Q0: 1 	  Q2: 3 	  Q4: 3 	  Q3: 3 	 
13	 	 	97.2	 	 Q2: 1 	 
14	 	 	60.2	 	 Q1: 0 	  Q3: 0 	 
15	 	 	97.9	 	 Q0: 3 	  Q2: 1 	  Q4: 3 	 
16	 	 	79.9	 	 Q0: 1 	  Q4: 2 	  Q3: 1 	  Q2: 3 	 
17	 	 	74.9	 	 Q3: 0 	  Q2: 0 	  Q0: 2 	  Q4: 2 	 
18	 	 	39.4	 	 Q4: 1 	 
19	 	 	25.6	 	 Q0: 1 	  Q1: 2 	 
20	 	 	41.9	 	 Q0: 2 	  Q2: 1 	  Q1: 1 	 
========================================================== 
TaskID 	 Duration 	 Skill 	 Predecessor IDs 
1	35	Q4:	1
2	25	Q3:	1
3	36	Q0:	2
4	35	Q4:	1
5	21	Q2:	3
6	40	Q0:	2
7	25	Q0:	3
8	24	Q3:	3
9	38	Q0:	3
10	28	Q1:	0
11	18	Q2:	3
12	21	Q2:	1
13	35	Q3:	0
14	22	Q4:	0	6
15	20	Q3:	3
16	23	Q1:	0
17	29	Q3:	3
18	10	Q1:	0
19	21	Q1:	2
20	16	Q3:	2	10
21	29	Q0:	1
22	22	Q3:	1
23	9	Q4:	3	5
24	9	Q1:	0	16
25	21	Q3:	0	9
26	10	Q3:	0
27	24	Q0:	1	17
28	37	Q1:	3	11
29	39	Q1:	0	13
30	13	Q4:	0
31	33	Q4:	2
32	37	Q0:	1
33	21	Q2:	1
34	10	Q2:	0
35	28	Q4:	3
36	23	Q0:	2	28
37	33	Q2:	1
38	28	Q3:	2
39	39	Q3:	3
40	17	Q4:	0
41	29	Q3:	3	17
42	9	Q1:	1
43	19	Q1:	3
44	29	Q2:	1
45	11	Q4:	3
46	9	Q3:	0
47	21	Q4:	3	24	19
48	32	Q3:	2
49	28	Q1:	3	20
50	28	Q3:	2
51	29	Q4:	0	3
52	16	Q3:	3	36
53	28	Q3:	2	5
54	27	Q1:	1
55	28	Q0:	1	46
56	12	Q1:	2
57	37	Q0:	1	36	42	8
58	19	Q0:	2
59	28	Q3:	0	43
60	19	Q3:	2
61	27	Q0:	1	10	50	1
62	26	Q0:	2
63	20	Q0:	2	56
64	32	Q0:	1	59
65	27	Q4:	0
66	9	Q2:	3	37	63
67	15	Q4:	3
68	27	Q1:	1
69	18	Q2:	0
70	20	Q3:	2
71	11	Q3:	1	39
72	36	Q0:	1	22
73	14	Q3:	1	66
74	32	Q0:	1	47	67
75	18	Q0:	1	33	60
76	28	Q3:	2	23	37
77	36	Q3:	3
78	20	Q4:	3	12	52
79	20	Q1:	2	8	56
80	35	Q3:	3	37
81	27	Q0:	2
82	40	Q3:	1	10
83	33	Q0:	3
84	33	Q0:	1
85	19	Q3:	2	20
86	21	Q0:	1	42
87	27	Q2:	3	23	16	12	25
88	39	Q0:	2	25
89	24	Q2:	3	27
90	31	Q3:	1
91	26	Q2:	3
92	28	Q4:	1	23	9
93	29	Q1:	2	56	87	77
94	15	Q3:	2	61
95	22	Q3:	3	64
96	38	Q2:	3	62
97	34	Q4:	1
98	10	Q2:	1	75	92
99	22	Q4:	0
100	11	Q1:	3	27	2
========================================================== 